c Reduced graph for GEOM40b_0 generated by Cyril Grelier
p edge 37 147
e 1 2
e 1 3
e 1 4
e 1 5
e 1 6
e 1 7
e 1 8
e 1 9
e 1 13
e 1 14
e 1 19
e 1 20
e 1 27
e 2 4
e 2 6
e 2 7
e 2 9
e 2 19
e 2 20
e 2 26
e 2 27
e 2 36
e 2 37
e 3 4
e 3 5
e 3 6
e 3 7
e 3 8
e 3 9
e 3 10
e 3 12
e 3 22
e 4 6
e 4 7
e 4 9
e 4 20
e 4 26
e 4 36
e 4 37
e 5 8
e 5 9
e 5 13
e 5 14
e 5 15
e 5 17
e 5 18
e 5 21
e 6 7
e 6 9
e 6 19
e 6 20
e 6 26
e 6 27
e 7 9
e 7 10
e 7 12
e 7 26
e 7 35
e 8 9
e 8 13
e 8 14
e 8 15
e 8 17
e 8 18
e 8 21
e 9 10
e 9 20
e 10 11
e 10 12
e 10 16
e 10 22
e 10 24
e 10 25
e 10 35
e 11 12
e 11 16
e 11 22
e 11 24
e 11 25
e 11 28
e 11 29
e 11 32
e 12 16
e 12 22
e 12 24
e 12 25
e 12 35
e 13 14
e 13 17
e 13 18
e 13 21
e 13 23
e 13 30
e 14 17
e 14 19
e 14 23
e 14 30
e 14 31
e 15 18
e 15 21
e 15 28
e 15 29
e 15 33
e 15 34
e 16 22
e 16 24
e 16 25
e 16 29
e 16 32
e 17 18
e 17 23
e 17 30
e 17 31
e 18 21
e 18 30
e 18 33
e 19 20
e 19 23
e 19 27
e 19 31
e 20 26
e 20 27
e 21 28
e 21 29
e 21 33
e 22 24
e 22 25
e 22 35
e 23 27
e 23 30
e 23 31
e 24 25
e 24 32
e 25 35
e 26 36
e 26 37
e 27 31
e 28 29
e 28 32
e 28 33
e 28 34
e 29 32
e 29 34
e 30 31
e 32 34
e 33 34
e 36 37
